(set-info :smt-lib-version 2.6)
(set-logic QF_NIA)
(set-info :source |
Generated by: Cristina Borralleras, Daniel Larraz, Albert Oliveras, Enric Rodriguez-Carbonell, Albert Rubio
Generated on: 2017-04-27
Generator: VeryMax
Application: Termination proving
Target solver: barcelogic
|)
(set-info :license "https://creativecommons.org/licenses/by/4.0/")
(set-info :category "industrial")
(set-info :status unknown)
(declare-fun Nl2arg11 () Int)
(declare-fun Nl2arg21 () Int)
(declare-fun Nl2arg31 () Int)
(declare-fun Nl2arg41 () Int)
(declare-fun Nl2arg51 () Int)
(declare-fun Nl2arg12 () Int)
(declare-fun Nl2arg22 () Int)
(declare-fun Nl2arg32 () Int)
(declare-fun Nl2arg42 () Int)
(declare-fun Nl2arg52 () Int)
(declare-fun lam0n0 () Int)
(declare-fun lam0n1 () Int)
(declare-fun lam0n2 () Int)
(declare-fun lam0n3 () Int)
(declare-fun lam0n4 () Int)
(declare-fun lam0n5 () Int)
(declare-fun lam0n6 () Int)
(declare-fun lam0n7 () Int)
(declare-fun lam0n8 () Int)
(declare-fun lam0n9 () Int)
(declare-fun lam0n12 () Int)
(declare-fun lam0n13 () Int)
(declare-fun Nl2CT1 () Int)
(declare-fun Nl2CT2 () Int)
(declare-fun lam0n10 () Int)
(declare-fun lam0n11 () Int)
(declare-fun lam1n0 () Int)
(declare-fun lam1n1 () Int)
(declare-fun lam1n2 () Int)
(declare-fun lam1n3 () Int)
(declare-fun lam1n4 () Int)
(declare-fun lam1n5 () Int)
(declare-fun lam1n6 () Int)
(declare-fun lam1n7 () Int)
(declare-fun lam1n8 () Int)
(declare-fun lam1n9 () Int)
(declare-fun lam1n12 () Int)
(declare-fun lam1n13 () Int)
(declare-fun lam1n10 () Int)
(declare-fun lam1n11 () Int)
(declare-fun lam2n0 () Int)
(declare-fun lam2n1 () Int)
(declare-fun lam2n2 () Int)
(declare-fun lam2n3 () Int)
(declare-fun lam2n4 () Int)
(declare-fun lam2n5 () Int)
(declare-fun lam2n6 () Int)
(declare-fun lam2n7 () Int)
(declare-fun lam2n8 () Int)
(declare-fun lam2n9 () Int)
(declare-fun lam2n12 () Int)
(declare-fun lam2n13 () Int)
(declare-fun lam2n10 () Int)
(declare-fun lam2n11 () Int)
(declare-fun lam3n0 () Int)
(declare-fun lam3n1 () Int)
(declare-fun lam3n2 () Int)
(declare-fun lam3n3 () Int)
(declare-fun lam3n4 () Int)
(declare-fun lam3n5 () Int)
(declare-fun lam3n6 () Int)
(declare-fun lam3n7 () Int)
(declare-fun lam3n8 () Int)
(declare-fun lam3n11 () Int)
(declare-fun lam3n12 () Int)
(declare-fun lam3n9 () Int)
(declare-fun lam3n10 () Int)
(declare-fun lam4n0 () Int)
(declare-fun lam4n1 () Int)
(declare-fun lam4n2 () Int)
(declare-fun lam4n3 () Int)
(declare-fun lam4n4 () Int)
(declare-fun lam4n5 () Int)
(declare-fun lam4n6 () Int)
(declare-fun lam4n7 () Int)
(declare-fun lam4n8 () Int)
(declare-fun lam4n11 () Int)
(declare-fun lam4n12 () Int)
(declare-fun lam4n9 () Int)
(declare-fun lam4n10 () Int)
(declare-fun lam5n0 () Int)
(declare-fun lam5n1 () Int)
(declare-fun lam5n2 () Int)
(declare-fun lam5n3 () Int)
(declare-fun lam5n4 () Int)
(declare-fun lam5n5 () Int)
(declare-fun lam5n6 () Int)
(declare-fun lam5n7 () Int)
(declare-fun lam5n8 () Int)
(declare-fun lam5n11 () Int)
(declare-fun lam5n12 () Int)
(declare-fun lam5n9 () Int)
(declare-fun lam5n10 () Int)
(declare-fun lam6n0 () Int)
(declare-fun lam6n1 () Int)
(declare-fun lam6n2 () Int)
(declare-fun lam6n3 () Int)
(declare-fun lam6n4 () Int)
(declare-fun lam6n5 () Int)
(declare-fun lam6n6 () Int)
(declare-fun lam6n7 () Int)
(declare-fun lam6n8 () Int)
(declare-fun lam6n9 () Int)
(declare-fun lam6n10 () Int)
(declare-fun lam7n0 () Int)
(declare-fun lam7n1 () Int)
(declare-fun lam7n2 () Int)
(declare-fun lam7n3 () Int)
(declare-fun lam7n4 () Int)
(declare-fun lam7n5 () Int)
(declare-fun lam7n6 () Int)
(declare-fun lam7n7 () Int)
(declare-fun lam7n8 () Int)
(declare-fun lam7n9 () Int)
(declare-fun lam7n10 () Int)
(declare-fun lam8n0 () Int)
(declare-fun lam8n1 () Int)
(declare-fun lam8n2 () Int)
(declare-fun lam8n3 () Int)
(declare-fun lam8n4 () Int)
(declare-fun lam8n5 () Int)
(declare-fun lam8n6 () Int)
(declare-fun lam8n7 () Int)
(declare-fun lam8n8 () Int)
(declare-fun lam8n9 () Int)
(declare-fun lam9n0 () Int)
(declare-fun lam9n1 () Int)
(declare-fun lam9n2 () Int)
(declare-fun lam9n3 () Int)
(declare-fun lam9n4 () Int)
(declare-fun lam9n5 () Int)
(declare-fun lam9n6 () Int)
(declare-fun lam9n7 () Int)
(declare-fun lam9n8 () Int)
(declare-fun lam9n9 () Int)
(declare-fun arg2 () Int)
(declare-fun arg5 () Int)
(declare-fun undef1 () Int)
(declare-fun undef16 () Int)
(declare-fun undef17 () Int)
(declare-fun arg3 () Int)
(declare-fun arg4 () Int)
(declare-fun arg1 () Int)
(declare-fun lam13n0 () Int)
(declare-fun lam13n1 () Int)
(declare-fun lam13n2 () Int)
(declare-fun lam13n3 () Int)
(declare-fun lam13n4 () Int)
(declare-fun lam13n5 () Int)
(declare-fun lam13n6 () Int)
(declare-fun lam13n7 () Int)
(declare-fun lam13n8 () Int)
(declare-fun lam13n9 () Int)
(declare-fun lam13n10 () Int)
(declare-fun lam13n11 () Int)
(declare-fun lam13n12 () Int)
(declare-fun lam13n15 () Int)
(declare-fun lam13n16 () Int)
(declare-fun RFN1_CT () Int)
(declare-fun RFN1_arg1 () Int)
(declare-fun RFN1_arg2 () Int)
(declare-fun RFN1_arg3 () Int)
(declare-fun RFN1_arg4 () Int)
(declare-fun lam13n13 () Int)
(declare-fun lam13n14 () Int)
(declare-fun RFN1_arg5 () Int)
(declare-fun lam17n0 () Int)
(declare-fun lam17n1 () Int)
(declare-fun lam17n2 () Int)
(declare-fun lam17n3 () Int)
(declare-fun lam17n4 () Int)
(declare-fun lam17n5 () Int)
(declare-fun lam17n6 () Int)
(declare-fun lam17n7 () Int)
(declare-fun lam17n8 () Int)
(declare-fun lam17n9 () Int)
(declare-fun lam17n10 () Int)
(declare-fun lam17n11 () Int)
(declare-fun lam17n12 () Int)
(declare-fun lam17n15 () Int)
(declare-fun lam17n16 () Int)
(declare-fun lam17n13 () Int)
(declare-fun lam17n14 () Int)
(declare-fun lam11n0 () Int)
(declare-fun lam11n1 () Int)
(declare-fun lam11n2 () Int)
(declare-fun lam11n3 () Int)
(declare-fun lam11n4 () Int)
(declare-fun lam11n5 () Int)
(declare-fun lam11n6 () Int)
(declare-fun lam11n7 () Int)
(declare-fun lam11n8 () Int)
(declare-fun lam11n9 () Int)
(declare-fun lam11n10 () Int)
(declare-fun lam11n11 () Int)
(declare-fun lam11n12 () Int)
(declare-fun lam11n15 () Int)
(declare-fun lam11n16 () Int)
(declare-fun lam11n13 () Int)
(declare-fun lam11n14 () Int)
(declare-fun lam12n0 () Int)
(declare-fun lam12n1 () Int)
(declare-fun lam12n2 () Int)
(declare-fun lam12n3 () Int)
(declare-fun lam12n4 () Int)
(declare-fun lam12n5 () Int)
(declare-fun lam12n6 () Int)
(declare-fun lam12n7 () Int)
(declare-fun lam12n8 () Int)
(declare-fun lam12n9 () Int)
(declare-fun lam12n10 () Int)
(declare-fun lam12n11 () Int)
(declare-fun lam12n12 () Int)
(declare-fun lam12n15 () Int)
(declare-fun lam12n16 () Int)
(declare-fun lam12n13 () Int)
(declare-fun lam12n14 () Int)
(declare-fun lam15n0 () Int)
(declare-fun lam15n1 () Int)
(declare-fun lam15n2 () Int)
(declare-fun lam15n3 () Int)
(declare-fun lam15n4 () Int)
(declare-fun lam15n5 () Int)
(declare-fun lam15n6 () Int)
(declare-fun lam15n7 () Int)
(declare-fun lam15n8 () Int)
(declare-fun lam15n9 () Int)
(declare-fun lam15n10 () Int)
(declare-fun lam15n11 () Int)
(declare-fun lam15n12 () Int)
(declare-fun lam15n15 () Int)
(declare-fun lam15n16 () Int)
(declare-fun lam15n13 () Int)
(declare-fun lam15n14 () Int)
(declare-fun lam16n0 () Int)
(declare-fun lam16n1 () Int)
(declare-fun lam16n2 () Int)
(declare-fun lam16n3 () Int)
(declare-fun lam16n4 () Int)
(declare-fun lam16n5 () Int)
(declare-fun lam16n6 () Int)
(declare-fun lam16n7 () Int)
(declare-fun lam16n8 () Int)
(declare-fun lam16n9 () Int)
(declare-fun lam16n10 () Int)
(declare-fun lam16n11 () Int)
(declare-fun lam16n12 () Int)
(declare-fun lam16n15 () Int)
(declare-fun lam16n16 () Int)
(declare-fun lam16n13 () Int)
(declare-fun lam16n14 () Int)
(declare-fun lam10n0 () Int)
(declare-fun lam10n1 () Int)
(declare-fun lam10n2 () Int)
(declare-fun lam10n3 () Int)
(declare-fun lam10n4 () Int)
(declare-fun lam10n5 () Int)
(declare-fun lam10n6 () Int)
(declare-fun lam10n7 () Int)
(declare-fun lam10n8 () Int)
(declare-fun lam10n9 () Int)
(declare-fun lam10n10 () Int)
(declare-fun lam10n11 () Int)
(declare-fun lam10n12 () Int)
(declare-fun lam10n15 () Int)
(declare-fun lam10n16 () Int)
(declare-fun lam10n13 () Int)
(declare-fun lam10n14 () Int)
(declare-fun lam14n0 () Int)
(declare-fun lam14n1 () Int)
(declare-fun lam14n2 () Int)
(declare-fun lam14n3 () Int)
(declare-fun lam14n4 () Int)
(declare-fun lam14n5 () Int)
(declare-fun lam14n6 () Int)
(declare-fun lam14n7 () Int)
(declare-fun lam14n8 () Int)
(declare-fun lam14n9 () Int)
(declare-fun lam14n10 () Int)
(declare-fun lam14n11 () Int)
(declare-fun lam14n12 () Int)
(declare-fun lam14n15 () Int)
(declare-fun lam14n16 () Int)
(declare-fun lam14n13 () Int)
(declare-fun lam14n14 () Int)
(assert ( and ( <= ( - 1 ) Nl2arg11 ) ( <= Nl2arg11 1 ) ( <= ( - 1 ) Nl2arg21 ) ( <= Nl2arg21 1 ) ( <= ( - 1 ) Nl2arg31 ) ( <= Nl2arg31 1 ) ( <= ( - 1 ) Nl2arg41 ) ( <= Nl2arg41 1 ) ( <= ( - 1 ) Nl2arg51 ) ( <= Nl2arg51 1 ) ( <= ( - 1 ) Nl2arg12 ) ( <= Nl2arg12 1 ) ( <= ( - 1 ) Nl2arg22 ) ( <= Nl2arg22 1 ) ( <= ( - 1 ) Nl2arg32 ) ( <= Nl2arg32 1 ) ( <= ( - 1 ) Nl2arg42 ) ( <= Nl2arg42 1 ) ( <= ( - 1 ) Nl2arg52 ) ( <= Nl2arg52 1 ) ))
(assert ( or ( and ( >= lam0n0 0 ) ( >= lam0n1 0 ) ( >= lam0n2 0 ) ( >= lam0n3 0 ) ( >= lam0n4 0 ) ( >= lam0n5 0 ) ( >= lam0n6 0 ) ( >= lam0n7 0 ) ( >= lam0n8 0 ) ( >= lam0n9 0 ) ( >= lam0n12 0 ) ( >= lam0n13 0 ) ( > ( + ( * 1 lam0n0 ) ( * 1 lam0n1 ) ( * 1 lam0n2 ) ( * 1 lam0n3 ) ( * 1 lam0n4 ) ( * 1 lam0n5 ) ( * 1 lam0n6 ) ( * ( - 1 ) lam0n7 ) ( * ( - 1 ) lam0n8 ) ( * Nl2CT1 lam0n12 ) ( * Nl2CT2 lam0n13 ) ( - 1 ) ) 0 ) ( = ( + ( * ( - 1 ) lam0n0 ) ( * ( - 1 ) lam0n1 ) ( * ( - 1 ) lam0n9 ) ( * Nl2arg11 lam0n12 ) ( * Nl2arg12 lam0n13 ) ) 0 ) ( = ( + ( * ( - 1 ) lam0n2 ) ( * ( - 1 ) lam0n3 ) ( * 1 lam0n7 ) ( * ( - 1 ) lam0n8 ) ( * Nl2arg21 lam0n12 ) ( * Nl2arg22 lam0n13 ) ) 0 ) ( = ( + ( * ( - 1 ) lam0n4 ) ( * ( - 1 ) lam0n5 ) ( * 1 lam0n10 ) ( * Nl2arg31 lam0n12 ) ( * Nl2arg32 lam0n13 ) ) 0 ) ( = ( + ( * ( - 1 ) lam0n7 ) ( * ( - 1 ) lam0n10 ) ( * Nl2arg41 lam0n12 ) ( * Nl2arg42 lam0n13 ) ) 0 ) ( = ( + ( * ( - 1 ) lam0n1 ) ( * 1 lam0n3 ) ( * 1 lam0n5 ) ( * ( - 1 ) lam0n7 ) ( * ( - 1 ) lam0n8 ) ( * 1 lam0n11 ) ( * Nl2arg51 lam0n12 ) ( * Nl2arg52 lam0n13 ) ) 0 ) ( = ( + ( * ( - 1 ) lam0n6 ) ( * 1 lam0n9 ) ) 0 ) ) ( and ( >= lam1n0 0 ) ( >= lam1n1 0 ) ( >= lam1n2 0 ) ( >= lam1n3 0 ) ( >= lam1n4 0 ) ( >= lam1n5 0 ) ( >= lam1n6 0 ) ( >= lam1n7 0 ) ( >= lam1n8 0 ) ( >= lam1n9 0 ) ( >= lam1n12 0 ) ( >= lam1n13 0 ) ( > ( + ( * 1 lam1n0 ) ( * 1 lam1n1 ) ( * 1 lam1n2 ) ( * 1 lam1n3 ) ( * 1 lam1n4 ) ( * 1 lam1n5 ) ( * 1 lam1n6 ) ( * ( - 1 ) lam1n7 ) ( * ( - 1 ) lam1n8 ) ( * Nl2CT1 lam1n12 ) ( * Nl2CT2 lam1n13 ) ( - 1 ( + ( + ( + ( + Nl2CT1 ( * Nl2arg11 0 ) ) ( * Nl2arg21 1 ) ) ( * Nl2arg31 0 ) ) ( * Nl2arg41 0 ) ) ) ) 0 ) ( = ( + ( * ( - 1 ) lam1n0 ) ( * ( - 1 ) lam1n1 ) ( * ( - 1 ) lam1n9 ) ( * Nl2arg11 lam1n12 ) ( * Nl2arg12 lam1n13 ) ) 0 ) ( = ( + ( * ( - 1 ) lam1n2 ) ( * ( - 1 ) lam1n3 ) ( * 1 lam1n7 ) ( * ( - 1 ) lam1n8 ) ( * Nl2arg21 lam1n12 ) ( * Nl2arg22 lam1n13 ) ( - ( + 0 ( * Nl2arg21 1 ) ) ) ) 0 ) ( = ( + ( * ( - 1 ) lam1n4 ) ( * ( - 1 ) lam1n5 ) ( * 1 lam1n10 ) ( * Nl2arg31 lam1n12 ) ( * Nl2arg32 lam1n13 ) ) 0 ) ( = ( + ( * ( - 1 ) lam1n7 ) ( * ( - 1 ) lam1n10 ) ( * Nl2arg41 lam1n12 ) ( * Nl2arg42 lam1n13 ) ) 0 ) ( = ( + ( * ( - 1 ) lam1n1 ) ( * 1 lam1n3 ) ( * 1 lam1n5 ) ( * ( - 1 ) lam1n7 ) ( * ( - 1 ) lam1n8 ) ( * 1 lam1n11 ) ( * Nl2arg51 lam1n12 ) ( * Nl2arg52 lam1n13 ) ( - ( + 0 Nl2arg51 ) ) ) 0 ) ( = ( + ( * ( - 1 ) lam1n6 ) ( * 1 lam1n9 ) ( - ( + 0 ( * Nl2arg11 1 ) ) ) ) 0 ) ( = ( - ( + 0 ( * Nl2arg31 1 ) ) ) 0 ) ( = ( - ( + 0 ( * Nl2arg41 1 ) ) ) 0 ) ) ))
(assert ( or ( and ( >= lam0n0 0 ) ( >= lam0n1 0 ) ( >= lam0n2 0 ) ( >= lam0n3 0 ) ( >= lam0n4 0 ) ( >= lam0n5 0 ) ( >= lam0n6 0 ) ( >= lam0n7 0 ) ( >= lam0n8 0 ) ( >= lam0n9 0 ) ( >= lam0n12 0 ) ( >= lam0n13 0 ) ( > ( + ( * 1 lam0n0 ) ( * 1 lam0n1 ) ( * 1 lam0n2 ) ( * 1 lam0n3 ) ( * 1 lam0n4 ) ( * 1 lam0n5 ) ( * 1 lam0n6 ) ( * ( - 1 ) lam0n7 ) ( * ( - 1 ) lam0n8 ) ( * Nl2CT1 lam0n12 ) ( * Nl2CT2 lam0n13 ) ( - 1 ) ) 0 ) ( = ( + ( * ( - 1 ) lam0n0 ) ( * ( - 1 ) lam0n1 ) ( * ( - 1 ) lam0n9 ) ( * Nl2arg11 lam0n12 ) ( * Nl2arg12 lam0n13 ) ) 0 ) ( = ( + ( * ( - 1 ) lam0n2 ) ( * ( - 1 ) lam0n3 ) ( * 1 lam0n7 ) ( * ( - 1 ) lam0n8 ) ( * Nl2arg21 lam0n12 ) ( * Nl2arg22 lam0n13 ) ) 0 ) ( = ( + ( * ( - 1 ) lam0n4 ) ( * ( - 1 ) lam0n5 ) ( * 1 lam0n10 ) ( * Nl2arg31 lam0n12 ) ( * Nl2arg32 lam0n13 ) ) 0 ) ( = ( + ( * ( - 1 ) lam0n7 ) ( * ( - 1 ) lam0n10 ) ( * Nl2arg41 lam0n12 ) ( * Nl2arg42 lam0n13 ) ) 0 ) ( = ( + ( * ( - 1 ) lam0n1 ) ( * 1 lam0n3 ) ( * 1 lam0n5 ) ( * ( - 1 ) lam0n7 ) ( * ( - 1 ) lam0n8 ) ( * 1 lam0n11 ) ( * Nl2arg51 lam0n12 ) ( * Nl2arg52 lam0n13 ) ) 0 ) ( = ( + ( * ( - 1 ) lam0n6 ) ( * 1 lam0n9 ) ) 0 ) ) ( and ( >= lam2n0 0 ) ( >= lam2n1 0 ) ( >= lam2n2 0 ) ( >= lam2n3 0 ) ( >= lam2n4 0 ) ( >= lam2n5 0 ) ( >= lam2n6 0 ) ( >= lam2n7 0 ) ( >= lam2n8 0 ) ( >= lam2n9 0 ) ( >= lam2n12 0 ) ( >= lam2n13 0 ) ( > ( + ( * 1 lam2n0 ) ( * 1 lam2n1 ) ( * 1 lam2n2 ) ( * 1 lam2n3 ) ( * 1 lam2n4 ) ( * 1 lam2n5 ) ( * 1 lam2n6 ) ( * ( - 1 ) lam2n7 ) ( * ( - 1 ) lam2n8 ) ( * Nl2CT1 lam2n12 ) ( * Nl2CT2 lam2n13 ) ( - 1 ( + ( + ( + ( + Nl2CT2 ( * Nl2arg12 0 ) ) ( * Nl2arg22 1 ) ) ( * Nl2arg32 0 ) ) ( * Nl2arg42 0 ) ) ) ) 0 ) ( = ( + ( * ( - 1 ) lam2n0 ) ( * ( - 1 ) lam2n1 ) ( * ( - 1 ) lam2n9 ) ( * Nl2arg11 lam2n12 ) ( * Nl2arg12 lam2n13 ) ) 0 ) ( = ( + ( * ( - 1 ) lam2n2 ) ( * ( - 1 ) lam2n3 ) ( * 1 lam2n7 ) ( * ( - 1 ) lam2n8 ) ( * Nl2arg21 lam2n12 ) ( * Nl2arg22 lam2n13 ) ( - ( + 0 ( * Nl2arg22 1 ) ) ) ) 0 ) ( = ( + ( * ( - 1 ) lam2n4 ) ( * ( - 1 ) lam2n5 ) ( * 1 lam2n10 ) ( * Nl2arg31 lam2n12 ) ( * Nl2arg32 lam2n13 ) ) 0 ) ( = ( + ( * ( - 1 ) lam2n7 ) ( * ( - 1 ) lam2n10 ) ( * Nl2arg41 lam2n12 ) ( * Nl2arg42 lam2n13 ) ) 0 ) ( = ( + ( * ( - 1 ) lam2n1 ) ( * 1 lam2n3 ) ( * 1 lam2n5 ) ( * ( - 1 ) lam2n7 ) ( * ( - 1 ) lam2n8 ) ( * 1 lam2n11 ) ( * Nl2arg51 lam2n12 ) ( * Nl2arg52 lam2n13 ) ( - ( + 0 Nl2arg52 ) ) ) 0 ) ( = ( + ( * ( - 1 ) lam2n6 ) ( * 1 lam2n9 ) ( - ( + 0 ( * Nl2arg12 1 ) ) ) ) 0 ) ( = ( - ( + 0 ( * Nl2arg32 1 ) ) ) 0 ) ( = ( - ( + 0 ( * Nl2arg42 1 ) ) ) 0 ) ) ))
(assert ( or ( and ( >= lam3n0 0 ) ( >= lam3n1 0 ) ( >= lam3n2 0 ) ( >= lam3n3 0 ) ( >= lam3n4 0 ) ( >= lam3n5 0 ) ( >= lam3n6 0 ) ( >= lam3n7 0 ) ( >= lam3n8 0 ) ( >= lam3n11 0 ) ( >= lam3n12 0 ) ( > ( + ( * 1 lam3n0 ) ( * 1 lam3n1 ) ( * 1 lam3n2 ) ( * 1 lam3n3 ) ( * 1 lam3n4 ) ( * 1 lam3n5 ) ( * ( - 1 ) lam3n6 ) ( * 2 lam3n8 ) ( * Nl2CT1 lam3n11 ) ( * Nl2CT2 lam3n12 ) ( - 1 ) ) 0 ) ( = ( + ( * ( - 1 ) lam3n0 ) ( * ( - 1 ) lam3n1 ) ( * ( - 1 ) lam3n7 ) ( * Nl2arg11 lam3n11 ) ( * Nl2arg12 lam3n12 ) ) 0 ) ( = ( + ( * ( - 1 ) lam3n2 ) ( * ( - 1 ) lam3n6 ) ( * ( - 1 ) lam3n8 ) ( * Nl2arg21 lam3n11 ) ( * Nl2arg22 lam3n12 ) ) 0 ) ( = ( + ( * ( - 1 ) lam3n3 ) ( * ( - 1 ) lam3n4 ) ( * 1 lam3n9 ) ( * Nl2arg31 lam3n11 ) ( * Nl2arg32 lam3n12 ) ) 0 ) ( = ( + ( * 1 lam3n8 ) ( * ( - 1 ) lam3n9 ) ( * Nl2arg41 lam3n11 ) ( * Nl2arg42 lam3n12 ) ) 0 ) ( = ( + ( * ( - 1 ) lam3n1 ) ( * 1 lam3n4 ) ( * ( - 1 ) lam3n6 ) ( * 1 lam3n8 ) ( * 1 lam3n10 ) ( * Nl2arg51 lam3n11 ) ( * Nl2arg52 lam3n12 ) ) 0 ) ( = ( + ( * ( - 1 ) lam3n5 ) ( * 1 lam3n7 ) ) 0 ) ) ( and ( >= lam4n0 0 ) ( >= lam4n1 0 ) ( >= lam4n2 0 ) ( >= lam4n3 0 ) ( >= lam4n4 0 ) ( >= lam4n5 0 ) ( >= lam4n6 0 ) ( >= lam4n7 0 ) ( >= lam4n8 0 ) ( >= lam4n11 0 ) ( >= lam4n12 0 ) ( > ( + ( * 1 lam4n0 ) ( * 1 lam4n1 ) ( * 1 lam4n2 ) ( * 1 lam4n3 ) ( * 1 lam4n4 ) ( * 1 lam4n5 ) ( * ( - 1 ) lam4n6 ) ( * 2 lam4n8 ) ( * Nl2CT1 lam4n11 ) ( * Nl2CT2 lam4n12 ) ( - 1 ( + ( + ( + ( + Nl2CT1 ( * Nl2arg11 0 ) ) ( * Nl2arg21 1 ) ) ( * Nl2arg31 0 ) ) ( * Nl2arg41 0 ) ) ) ) 0 ) ( = ( + ( * ( - 1 ) lam4n0 ) ( * ( - 1 ) lam4n1 ) ( * ( - 1 ) lam4n7 ) ( * Nl2arg11 lam4n11 ) ( * Nl2arg12 lam4n12 ) ) 0 ) ( = ( + ( * ( - 1 ) lam4n2 ) ( * ( - 1 ) lam4n6 ) ( * ( - 1 ) lam4n8 ) ( * Nl2arg21 lam4n11 ) ( * Nl2arg22 lam4n12 ) ( - ( + 0 ( * Nl2arg21 1 ) ) ) ) 0 ) ( = ( + ( * ( - 1 ) lam4n3 ) ( * ( - 1 ) lam4n4 ) ( * 1 lam4n9 ) ( * Nl2arg31 lam4n11 ) ( * Nl2arg32 lam4n12 ) ) 0 ) ( = ( + ( * 1 lam4n8 ) ( * ( - 1 ) lam4n9 ) ( * Nl2arg41 lam4n11 ) ( * Nl2arg42 lam4n12 ) ) 0 ) ( = ( + ( * ( - 1 ) lam4n1 ) ( * 1 lam4n4 ) ( * ( - 1 ) lam4n6 ) ( * 1 lam4n8 ) ( * 1 lam4n10 ) ( * Nl2arg51 lam4n11 ) ( * Nl2arg52 lam4n12 ) ( - ( + 0 Nl2arg51 ) ) ) 0 ) ( = ( + ( * ( - 1 ) lam4n5 ) ( * 1 lam4n7 ) ( - ( + 0 ( * Nl2arg11 1 ) ) ) ) 0 ) ( = ( - ( + 0 ( * Nl2arg31 1 ) ) ) 0 ) ( = ( - ( + 0 ( * Nl2arg41 1 ) ) ) 0 ) ) ))
(assert ( or ( and ( >= lam3n0 0 ) ( >= lam3n1 0 ) ( >= lam3n2 0 ) ( >= lam3n3 0 ) ( >= lam3n4 0 ) ( >= lam3n5 0 ) ( >= lam3n6 0 ) ( >= lam3n7 0 ) ( >= lam3n8 0 ) ( >= lam3n11 0 ) ( >= lam3n12 0 ) ( > ( + ( * 1 lam3n0 ) ( * 1 lam3n1 ) ( * 1 lam3n2 ) ( * 1 lam3n3 ) ( * 1 lam3n4 ) ( * 1 lam3n5 ) ( * ( - 1 ) lam3n6 ) ( * 2 lam3n8 ) ( * Nl2CT1 lam3n11 ) ( * Nl2CT2 lam3n12 ) ( - 1 ) ) 0 ) ( = ( + ( * ( - 1 ) lam3n0 ) ( * ( - 1 ) lam3n1 ) ( * ( - 1 ) lam3n7 ) ( * Nl2arg11 lam3n11 ) ( * Nl2arg12 lam3n12 ) ) 0 ) ( = ( + ( * ( - 1 ) lam3n2 ) ( * ( - 1 ) lam3n6 ) ( * ( - 1 ) lam3n8 ) ( * Nl2arg21 lam3n11 ) ( * Nl2arg22 lam3n12 ) ) 0 ) ( = ( + ( * ( - 1 ) lam3n3 ) ( * ( - 1 ) lam3n4 ) ( * 1 lam3n9 ) ( * Nl2arg31 lam3n11 ) ( * Nl2arg32 lam3n12 ) ) 0 ) ( = ( + ( * 1 lam3n8 ) ( * ( - 1 ) lam3n9 ) ( * Nl2arg41 lam3n11 ) ( * Nl2arg42 lam3n12 ) ) 0 ) ( = ( + ( * ( - 1 ) lam3n1 ) ( * 1 lam3n4 ) ( * ( - 1 ) lam3n6 ) ( * 1 lam3n8 ) ( * 1 lam3n10 ) ( * Nl2arg51 lam3n11 ) ( * Nl2arg52 lam3n12 ) ) 0 ) ( = ( + ( * ( - 1 ) lam3n5 ) ( * 1 lam3n7 ) ) 0 ) ) ( and ( >= lam5n0 0 ) ( >= lam5n1 0 ) ( >= lam5n2 0 ) ( >= lam5n3 0 ) ( >= lam5n4 0 ) ( >= lam5n5 0 ) ( >= lam5n6 0 ) ( >= lam5n7 0 ) ( >= lam5n8 0 ) ( >= lam5n11 0 ) ( >= lam5n12 0 ) ( > ( + ( * 1 lam5n0 ) ( * 1 lam5n1 ) ( * 1 lam5n2 ) ( * 1 lam5n3 ) ( * 1 lam5n4 ) ( * 1 lam5n5 ) ( * ( - 1 ) lam5n6 ) ( * 2 lam5n8 ) ( * Nl2CT1 lam5n11 ) ( * Nl2CT2 lam5n12 ) ( - 1 ( + ( + ( + ( + Nl2CT2 ( * Nl2arg12 0 ) ) ( * Nl2arg22 1 ) ) ( * Nl2arg32 0 ) ) ( * Nl2arg42 0 ) ) ) ) 0 ) ( = ( + ( * ( - 1 ) lam5n0 ) ( * ( - 1 ) lam5n1 ) ( * ( - 1 ) lam5n7 ) ( * Nl2arg11 lam5n11 ) ( * Nl2arg12 lam5n12 ) ) 0 ) ( = ( + ( * ( - 1 ) lam5n2 ) ( * ( - 1 ) lam5n6 ) ( * ( - 1 ) lam5n8 ) ( * Nl2arg21 lam5n11 ) ( * Nl2arg22 lam5n12 ) ( - ( + 0 ( * Nl2arg22 1 ) ) ) ) 0 ) ( = ( + ( * ( - 1 ) lam5n3 ) ( * ( - 1 ) lam5n4 ) ( * 1 lam5n9 ) ( * Nl2arg31 lam5n11 ) ( * Nl2arg32 lam5n12 ) ) 0 ) ( = ( + ( * 1 lam5n8 ) ( * ( - 1 ) lam5n9 ) ( * Nl2arg41 lam5n11 ) ( * Nl2arg42 lam5n12 ) ) 0 ) ( = ( + ( * ( - 1 ) lam5n1 ) ( * 1 lam5n4 ) ( * ( - 1 ) lam5n6 ) ( * 1 lam5n8 ) ( * 1 lam5n10 ) ( * Nl2arg51 lam5n11 ) ( * Nl2arg52 lam5n12 ) ( - ( + 0 Nl2arg52 ) ) ) 0 ) ( = ( + ( * ( - 1 ) lam5n5 ) ( * 1 lam5n7 ) ( - ( + 0 ( * Nl2arg12 1 ) ) ) ) 0 ) ( = ( - ( + 0 ( * Nl2arg32 1 ) ) ) 0 ) ( = ( - ( + 0 ( * Nl2arg42 1 ) ) ) 0 ) ) ))
(assert ( or ( and ( not ( <= ( + arg2 ( * ( - 1 ) arg5 ) ) 0 ) ) ( <= ( + 1 ( * ( - 1 ) undef1 ) ) 0 ) ( <= ( + 1 ( * ( - 1 ) undef16 ) ) 0 ) ( <= ( + ( - 1 ) arg5 ) 0 ) ( <= ( + undef1 ( * ( - 1 ) undef16 ) ) 0 ) ( <= ( * ( - 1 ) undef17 ) 0 ) ( = ( + ( - 1 ) arg2 ) 0 ) ( = ( + ( - 1 ) arg3 ) 0 ) ( = ( + ( - 1 ) arg4 ) 0 ) ( = ( + arg1 ( * ( - 1 ) undef1 ) ) 0 ) ( = ( + arg5 ( * ( - 1 ) undef17 ) ) 0 ) ( <= ( + Nl2CT1 ( * ( + 0 Nl2arg11 ) arg1 ) ( * ( + 0 Nl2arg21 ) arg2 ) ( * ( + 0 Nl2arg31 ) arg3 ) ( * ( + 0 Nl2arg41 ) arg4 ) ( * ( + 0 Nl2arg51 ) arg5 ) ) 0 ) ( <= ( + Nl2CT2 ( * ( + 0 Nl2arg12 ) arg1 ) ( * ( + 0 Nl2arg22 ) arg2 ) ( * ( + 0 Nl2arg32 ) arg3 ) ( * ( + 0 Nl2arg42 ) arg4 ) ( * ( + 0 Nl2arg52 ) arg5 ) ) 0 ) ( <= ( * ( - 1 ) arg5 ) 0 ) ( <= arg5 0 ) ( <= ( + ( * ( - 1 ) arg1 ) ( * ( - 1 ) arg5 ) ) 0 ) ( <= ( * ( - 1 ) arg5 ) 0 ) ( <= ( + ( - 1 ) ( * ( - 1 ) arg1 ) ) 0 ) ( <= ( + ( - 1 ) ( * ( - 1 ) arg2 ) ( * ( - 1 ) arg5 ) ) 0 ) ( <= ( + 1 ( * ( - 1 ) arg1 ) ( * ( - 1 ) arg5 ) ) 0 ) ) ( and ( <= ( + 1 ( * ( - 1 ) undef1 ) ) 0 ) ( <= ( + 1 ( * ( - 1 ) undef16 ) ) 0 ) ( <= ( + undef1 ( * ( - 1 ) undef16 ) ) 0 ) ( <= ( * ( - 1 ) undef17 ) 0 ) ( not ( <= ( + ( - 1 ) arg5 ) 0 ) ) ( = ( + ( - 1 ) arg2 ) 0 ) ( = ( + ( - 1 ) arg3 ) 0 ) ( = ( + ( - 1 ) arg4 ) 0 ) ( = ( + arg1 ( * ( - 1 ) undef1 ) ) 0 ) ( = ( + arg5 ( * ( - 1 ) undef17 ) ) 0 ) ( <= ( + Nl2CT1 ( * ( + 0 Nl2arg11 ) arg1 ) ( * ( + 0 Nl2arg21 ) arg2 ) ( * ( + 0 Nl2arg31 ) arg3 ) ( * ( + 0 Nl2arg41 ) arg4 ) ( * ( + 0 Nl2arg51 ) arg5 ) ) 0 ) ( <= ( + Nl2CT2 ( * ( + 0 Nl2arg12 ) arg1 ) ( * ( + 0 Nl2arg22 ) arg2 ) ( * ( + 0 Nl2arg32 ) arg3 ) ( * ( + 0 Nl2arg42 ) arg4 ) ( * ( + 0 Nl2arg52 ) arg5 ) ) 0 ) ( <= ( * ( - 1 ) arg5 ) 0 ) ( <= arg5 0 ) ( <= ( + ( * ( - 1 ) arg1 ) ( * ( - 1 ) arg5 ) ) 0 ) ( <= ( * ( - 1 ) arg5 ) 0 ) ( <= ( + ( - 1 ) ( * ( - 1 ) arg1 ) ) 0 ) ( <= ( + ( - 1 ) ( * ( - 1 ) arg2 ) ( * ( - 1 ) arg5 ) ) 0 ) ( <= ( + 1 ( * ( - 1 ) arg1 ) ( * ( - 1 ) arg5 ) ) 0 ) ) ))
(assert ( or ( and ( and ( and ( >= lam13n0 0 ) ( >= lam13n1 0 ) ( >= lam13n2 0 ) ( >= lam13n3 0 ) ( >= lam13n4 0 ) ( >= lam13n5 0 ) ( >= lam13n6 0 ) ( >= lam13n7 0 ) ( >= lam13n8 0 ) ( >= lam13n9 0 ) ( >= lam13n10 0 ) ( >= lam13n11 0 ) ( >= lam13n12 0 ) ( >= lam13n15 0 ) ( >= lam13n16 0 ) ( > ( + ( * 1 lam13n0 ) ( * 1 lam13n1 ) ( * 1 lam13n2 ) ( * 1 lam13n3 ) ( * 1 lam13n4 ) ( * ( - 1 ) lam13n5 ) ( * 50001 lam13n7 ) ( * 50001 lam13n8 ) ( * 50001 lam13n9 ) ( * 50001 lam13n10 ) ( * 50001 lam13n11 ) ( * 50001 lam13n12 ) ( * Nl2CT1 lam13n15 ) ( * Nl2CT2 lam13n16 ) ( - 1 ( - ( + ( + ( + ( + RFN1_CT ( * RFN1_arg1 0 ) ) ( * RFN1_arg2 1 ) ) ( * RFN1_arg3 0 ) ) ( * RFN1_arg4 0 ) ) RFN1_CT ) ) ) 0 ) ( = ( + ( * ( - 1 ) lam13n0 ) ( * ( - 1 ) lam13n1 ) ( * ( - 1 ) lam13n6 ) ( * 1 lam13n7 ) ( * 1 lam13n8 ) ( * 1 lam13n9 ) ( * Nl2arg11 lam13n15 ) ( * Nl2arg12 lam13n16 ) ( - ( - RFN1_arg1 ) ) ) 0 ) ( = ( + ( * 1 lam13n5 ) ( * ( - 1 ) lam13n7 ) ( * ( - 1 ) lam13n8 ) ( * ( - 1 ) lam13n9 ) ( * ( - 1 ) lam13n10 ) ( * ( - 1 ) lam13n11 ) ( * ( - 1 ) lam13n12 ) ( * Nl2arg21 lam13n15 ) ( * Nl2arg22 lam13n16 ) ( - ( - ( + 0 ( * RFN1_arg2 1 ) ) RFN1_arg2 ) ) ) 0 ) ( = ( + ( * ( - 1 ) lam13n2 ) ( * ( - 1 ) lam13n3 ) ( * 1 lam13n13 ) ( * Nl2arg31 lam13n15 ) ( * Nl2arg32 lam13n16 ) ( - ( - RFN1_arg3 ) ) ) 0 ) ( = ( + ( * ( - 1 ) lam13n5 ) ( * ( - 1 ) lam13n13 ) ( * Nl2arg41 lam13n15 ) ( * Nl2arg42 lam13n16 ) ( - ( - RFN1_arg4 ) ) ) 0 ) ( = ( + ( * ( - 1 ) lam13n1 ) ( * 1 lam13n3 ) ( * ( - 1 ) lam13n5 ) ( * 1 lam13n8 ) ( * ( - 1 ) lam13n9 ) ( * 1 lam13n11 ) ( * ( - 1 ) lam13n12 ) ( * 1 lam13n14 ) ( * Nl2arg51 lam13n15 ) ( * Nl2arg52 lam13n16 ) ( - ( - ( + 0 RFN1_arg5 ) RFN1_arg5 ) ) ) 0 ) ( = ( + ( * ( - 1 ) lam13n4 ) ( * 1 lam13n6 ) ( - ( + 0 ( * RFN1_arg1 1 ) ) ) ) 0 ) ( = ( - ( + 0 ( * RFN1_arg3 1 ) ) ) 0 ) ( = ( - ( + 0 ( * RFN1_arg4 1 ) ) ) 0 ) ) ( and ( >= lam17n0 0 ) ( >= lam17n1 0 ) ( >= lam17n2 0 ) ( >= lam17n3 0 ) ( >= lam17n4 0 ) ( >= lam17n5 0 ) ( >= lam17n6 0 ) ( >= lam17n7 0 ) ( >= lam17n8 0 ) ( >= lam17n9 0 ) ( >= lam17n10 0 ) ( >= lam17n11 0 ) ( >= lam17n12 0 ) ( >= lam17n15 0 ) ( >= lam17n16 0 ) ( > ( + ( * 1 lam17n0 ) ( * 1 lam17n1 ) ( * 1 lam17n2 ) ( * 1 lam17n3 ) ( * 1 lam17n4 ) ( * 2 lam17n6 ) ( * 50001 lam17n7 ) ( * 50001 lam17n8 ) ( * 50001 lam17n9 ) ( * 50001 lam17n10 ) ( * 50001 lam17n11 ) ( * 50001 lam17n12 ) ( * Nl2CT1 lam17n15 ) ( * Nl2CT2 lam17n16 ) ( - 1 ( - ( + ( + ( + ( + RFN1_CT ( * RFN1_arg1 0 ) ) ( * RFN1_arg2 1 ) ) ( * RFN1_arg3 0 ) ) ( * RFN1_arg4 0 ) ) RFN1_CT ) ) ) 0 ) ( = ( + ( * ( - 1 ) lam17n0 ) ( * ( - 1 ) lam17n1 ) ( * ( - 1 ) lam17n5 ) ( * 1 lam17n7 ) ( * 1 lam17n8 ) ( * 1 lam17n9 ) ( * Nl2arg11 lam17n15 ) ( * Nl2arg12 lam17n16 ) ( - ( - RFN1_arg1 ) ) ) 0 ) ( = ( + ( * ( - 1 ) lam17n6 ) ( * ( - 1 ) lam17n7 ) ( * ( - 1 ) lam17n8 ) ( * ( - 1 ) lam17n9 ) ( * ( - 1 ) lam17n10 ) ( * ( - 1 ) lam17n11 ) ( * ( - 1 ) lam17n12 ) ( * Nl2arg21 lam17n15 ) ( * Nl2arg22 lam17n16 ) ( - ( - ( + 0 ( * RFN1_arg2 1 ) ) RFN1_arg2 ) ) ) 0 ) ( = ( + ( * ( - 1 ) lam17n2 ) ( * ( - 1 ) lam17n3 ) ( * 1 lam17n13 ) ( * Nl2arg31 lam17n15 ) ( * Nl2arg32 lam17n16 ) ( - ( - RFN1_arg3 ) ) ) 0 ) ( = ( + ( * 1 lam17n6 ) ( * ( - 1 ) lam17n13 ) ( * Nl2arg41 lam17n15 ) ( * Nl2arg42 lam17n16 ) ( - ( - RFN1_arg4 ) ) ) 0 ) ( = ( + ( * ( - 1 ) lam17n1 ) ( * 1 lam17n3 ) ( * 1 lam17n6 ) ( * 1 lam17n8 ) ( * ( - 1 ) lam17n9 ) ( * 1 lam17n11 ) ( * ( - 1 ) lam17n12 ) ( * 1 lam17n14 ) ( * Nl2arg51 lam17n15 ) ( * Nl2arg52 lam17n16 ) ( - ( - ( + 0 RFN1_arg5 ) RFN1_arg5 ) ) ) 0 ) ( = ( + ( * ( - 1 ) lam17n4 ) ( * 1 lam17n5 ) ( - ( + 0 ( * RFN1_arg1 1 ) ) ) ) 0 ) ( = ( - ( + 0 ( * RFN1_arg3 1 ) ) ) 0 ) ( = ( - ( + 0 ( * RFN1_arg4 1 ) ) ) 0 ) ) ) ( or ( and ( and ( >= lam11n0 0 ) ( >= lam11n1 0 ) ( >= lam11n2 0 ) ( >= lam11n3 0 ) ( >= lam11n4 0 ) ( >= lam11n5 0 ) ( >= lam11n6 0 ) ( >= lam11n7 0 ) ( >= lam11n8 0 ) ( >= lam11n9 0 ) ( >= lam11n10 0 ) ( >= lam11n11 0 ) ( >= lam11n12 0 ) ( >= lam11n15 0 ) ( >= lam11n16 0 ) ( > ( + ( * 1 lam11n0 ) ( * 1 lam11n1 ) ( * 1 lam11n2 ) ( * 1 lam11n3 ) ( * 1 lam11n4 ) ( * ( - 1 ) lam11n5 ) ( * 50001 lam11n7 ) ( * 50001 lam11n8 ) ( * 50001 lam11n9 ) ( * 50001 lam11n10 ) ( * 50001 lam11n11 ) ( * 50001 lam11n12 ) ( * Nl2CT1 lam11n15 ) ( * Nl2CT2 lam11n16 ) ( - 1 ( - RFN1_CT ) ) ) 0 ) ( = ( + ( * ( - 1 ) lam11n0 ) ( * ( - 1 ) lam11n1 ) ( * ( - 1 ) lam11n6 ) ( * 1 lam11n7 ) ( * 1 lam11n8 ) ( * 1 lam11n9 ) ( * Nl2arg11 lam11n15 ) ( * Nl2arg12 lam11n16 ) ( - ( - RFN1_arg1 ) ) ) 0 ) ( = ( + ( * 1 lam11n5 ) ( * ( - 1 ) lam11n7 ) ( * ( - 1 ) lam11n8 ) ( * ( - 1 ) lam11n9 ) ( * ( - 1 ) lam11n10 ) ( * ( - 1 ) lam11n11 ) ( * ( - 1 ) lam11n12 ) ( * Nl2arg21 lam11n15 ) ( * Nl2arg22 lam11n16 ) ( - ( - RFN1_arg2 ) ) ) 0 ) ( = ( + ( * ( - 1 ) lam11n2 ) ( * ( - 1 ) lam11n3 ) ( * 1 lam11n13 ) ( * Nl2arg31 lam11n15 ) ( * Nl2arg32 lam11n16 ) ( - ( - RFN1_arg3 ) ) ) 0 ) ( = ( + ( * ( - 1 ) lam11n5 ) ( * ( - 1 ) lam11n13 ) ( * Nl2arg41 lam11n15 ) ( * Nl2arg42 lam11n16 ) ( - ( - RFN1_arg4 ) ) ) 0 ) ( = ( + ( * ( - 1 ) lam11n1 ) ( * 1 lam11n3 ) ( * ( - 1 ) lam11n5 ) ( * 1 lam11n8 ) ( * ( - 1 ) lam11n9 ) ( * 1 lam11n11 ) ( * ( - 1 ) lam11n12 ) ( * 1 lam11n14 ) ( * Nl2arg51 lam11n15 ) ( * Nl2arg52 lam11n16 ) ( - ( - RFN1_arg5 ) ) ) 0 ) ( = ( + ( * ( - 1 ) lam11n4 ) ( * 1 lam11n6 ) ) 0 ) ) ( and ( >= lam12n0 0 ) ( >= lam12n1 0 ) ( >= lam12n2 0 ) ( >= lam12n3 0 ) ( >= lam12n4 0 ) ( >= lam12n5 0 ) ( >= lam12n6 0 ) ( >= lam12n7 0 ) ( >= lam12n8 0 ) ( >= lam12n9 0 ) ( >= lam12n10 0 ) ( >= lam12n11 0 ) ( >= lam12n12 0 ) ( >= lam12n15 0 ) ( >= lam12n16 0 ) ( > ( + ( * 1 lam12n0 ) ( * 1 lam12n1 ) ( * 1 lam12n2 ) ( * 1 lam12n3 ) ( * 1 lam12n4 ) ( * ( - 1 ) lam12n5 ) ( * 50001 lam12n7 ) ( * 50001 lam12n8 ) ( * 50001 lam12n9 ) ( * 50001 lam12n10 ) ( * 50001 lam12n11 ) ( * 50001 lam12n12 ) ( * Nl2CT1 lam12n15 ) ( * Nl2CT2 lam12n16 ) ( - 1 ( + ( - ( + ( + ( + ( + RFN1_CT ( * RFN1_arg1 0 ) ) ( * RFN1_arg2 1 ) ) ( * RFN1_arg3 0 ) ) ( * RFN1_arg4 0 ) ) RFN1_CT ) 1 ) ) ) 0 ) ( = ( + ( * ( - 1 ) lam12n0 ) ( * ( - 1 ) lam12n1 ) ( * ( - 1 ) lam12n6 ) ( * 1 lam12n7 ) ( * 1 lam12n8 ) ( * 1 lam12n9 ) ( * Nl2arg11 lam12n15 ) ( * Nl2arg12 lam12n16 ) ( - ( - RFN1_arg1 ) ) ) 0 ) ( = ( + ( * 1 lam12n5 ) ( * ( - 1 ) lam12n7 ) ( * ( - 1 ) lam12n8 ) ( * ( - 1 ) lam12n9 ) ( * ( - 1 ) lam12n10 ) ( * ( - 1 ) lam12n11 ) ( * ( - 1 ) lam12n12 ) ( * Nl2arg21 lam12n15 ) ( * Nl2arg22 lam12n16 ) ( - ( - ( + 0 ( * RFN1_arg2 1 ) ) RFN1_arg2 ) ) ) 0 ) ( = ( + ( * ( - 1 ) lam12n2 ) ( * ( - 1 ) lam12n3 ) ( * 1 lam12n13 ) ( * Nl2arg31 lam12n15 ) ( * Nl2arg32 lam12n16 ) ( - ( - RFN1_arg3 ) ) ) 0 ) ( = ( + ( * ( - 1 ) lam12n5 ) ( * ( - 1 ) lam12n13 ) ( * Nl2arg41 lam12n15 ) ( * Nl2arg42 lam12n16 ) ( - ( - RFN1_arg4 ) ) ) 0 ) ( = ( + ( * ( - 1 ) lam12n1 ) ( * 1 lam12n3 ) ( * ( - 1 ) lam12n5 ) ( * 1 lam12n8 ) ( * ( - 1 ) lam12n9 ) ( * 1 lam12n11 ) ( * ( - 1 ) lam12n12 ) ( * 1 lam12n14 ) ( * Nl2arg51 lam12n15 ) ( * Nl2arg52 lam12n16 ) ( - ( - ( + 0 RFN1_arg5 ) RFN1_arg5 ) ) ) 0 ) ( = ( + ( * ( - 1 ) lam12n4 ) ( * 1 lam12n6 ) ( - ( + 0 ( * RFN1_arg1 1 ) ) ) ) 0 ) ( = ( - ( + 0 ( * RFN1_arg3 1 ) ) ) 0 ) ( = ( - ( + 0 ( * RFN1_arg4 1 ) ) ) 0 ) ) ) ( and ( and ( >= lam15n0 0 ) ( >= lam15n1 0 ) ( >= lam15n2 0 ) ( >= lam15n3 0 ) ( >= lam15n4 0 ) ( >= lam15n5 0 ) ( >= lam15n6 0 ) ( >= lam15n7 0 ) ( >= lam15n8 0 ) ( >= lam15n9 0 ) ( >= lam15n10 0 ) ( >= lam15n11 0 ) ( >= lam15n12 0 ) ( >= lam15n15 0 ) ( >= lam15n16 0 ) ( > ( + ( * 1 lam15n0 ) ( * 1 lam15n1 ) ( * 1 lam15n2 ) ( * 1 lam15n3 ) ( * 1 lam15n4 ) ( * 2 lam15n6 ) ( * 50001 lam15n7 ) ( * 50001 lam15n8 ) ( * 50001 lam15n9 ) ( * 50001 lam15n10 ) ( * 50001 lam15n11 ) ( * 50001 lam15n12 ) ( * Nl2CT1 lam15n15 ) ( * Nl2CT2 lam15n16 ) ( - 1 ( - RFN1_CT ) ) ) 0 ) ( = ( + ( * ( - 1 ) lam15n0 ) ( * ( - 1 ) lam15n1 ) ( * ( - 1 ) lam15n5 ) ( * 1 lam15n7 ) ( * 1 lam15n8 ) ( * 1 lam15n9 ) ( * Nl2arg11 lam15n15 ) ( * Nl2arg12 lam15n16 ) ( - ( - RFN1_arg1 ) ) ) 0 ) ( = ( + ( * ( - 1 ) lam15n6 ) ( * ( - 1 ) lam15n7 ) ( * ( - 1 ) lam15n8 ) ( * ( - 1 ) lam15n9 ) ( * ( - 1 ) lam15n10 ) ( * ( - 1 ) lam15n11 ) ( * ( - 1 ) lam15n12 ) ( * Nl2arg21 lam15n15 ) ( * Nl2arg22 lam15n16 ) ( - ( - RFN1_arg2 ) ) ) 0 ) ( = ( + ( * ( - 1 ) lam15n2 ) ( * ( - 1 ) lam15n3 ) ( * 1 lam15n13 ) ( * Nl2arg31 lam15n15 ) ( * Nl2arg32 lam15n16 ) ( - ( - RFN1_arg3 ) ) ) 0 ) ( = ( + ( * 1 lam15n6 ) ( * ( - 1 ) lam15n13 ) ( * Nl2arg41 lam15n15 ) ( * Nl2arg42 lam15n16 ) ( - ( - RFN1_arg4 ) ) ) 0 ) ( = ( + ( * ( - 1 ) lam15n1 ) ( * 1 lam15n3 ) ( * 1 lam15n6 ) ( * 1 lam15n8 ) ( * ( - 1 ) lam15n9 ) ( * 1 lam15n11 ) ( * ( - 1 ) lam15n12 ) ( * 1 lam15n14 ) ( * Nl2arg51 lam15n15 ) ( * Nl2arg52 lam15n16 ) ( - ( - RFN1_arg5 ) ) ) 0 ) ( = ( + ( * ( - 1 ) lam15n4 ) ( * 1 lam15n5 ) ) 0 ) ) ( and ( >= lam16n0 0 ) ( >= lam16n1 0 ) ( >= lam16n2 0 ) ( >= lam16n3 0 ) ( >= lam16n4 0 ) ( >= lam16n5 0 ) ( >= lam16n6 0 ) ( >= lam16n7 0 ) ( >= lam16n8 0 ) ( >= lam16n9 0 ) ( >= lam16n10 0 ) ( >= lam16n11 0 ) ( >= lam16n12 0 ) ( >= lam16n15 0 ) ( >= lam16n16 0 ) ( > ( + ( * 1 lam16n0 ) ( * 1 lam16n1 ) ( * 1 lam16n2 ) ( * 1 lam16n3 ) ( * 1 lam16n4 ) ( * 2 lam16n6 ) ( * 50001 lam16n7 ) ( * 50001 lam16n8 ) ( * 50001 lam16n9 ) ( * 50001 lam16n10 ) ( * 50001 lam16n11 ) ( * 50001 lam16n12 ) ( * Nl2CT1 lam16n15 ) ( * Nl2CT2 lam16n16 ) ( - 1 ( + ( - ( + ( + ( + ( + RFN1_CT ( * RFN1_arg1 0 ) ) ( * RFN1_arg2 1 ) ) ( * RFN1_arg3 0 ) ) ( * RFN1_arg4 0 ) ) RFN1_CT ) 1 ) ) ) 0 ) ( = ( + ( * ( - 1 ) lam16n0 ) ( * ( - 1 ) lam16n1 ) ( * ( - 1 ) lam16n5 ) ( * 1 lam16n7 ) ( * 1 lam16n8 ) ( * 1 lam16n9 ) ( * Nl2arg11 lam16n15 ) ( * Nl2arg12 lam16n16 ) ( - ( - RFN1_arg1 ) ) ) 0 ) ( = ( + ( * ( - 1 ) lam16n6 ) ( * ( - 1 ) lam16n7 ) ( * ( - 1 ) lam16n8 ) ( * ( - 1 ) lam16n9 ) ( * ( - 1 ) lam16n10 ) ( * ( - 1 ) lam16n11 ) ( * ( - 1 ) lam16n12 ) ( * Nl2arg21 lam16n15 ) ( * Nl2arg22 lam16n16 ) ( - ( - ( + 0 ( * RFN1_arg2 1 ) ) RFN1_arg2 ) ) ) 0 ) ( = ( + ( * ( - 1 ) lam16n2 ) ( * ( - 1 ) lam16n3 ) ( * 1 lam16n13 ) ( * Nl2arg31 lam16n15 ) ( * Nl2arg32 lam16n16 ) ( - ( - RFN1_arg3 ) ) ) 0 ) ( = ( + ( * 1 lam16n6 ) ( * ( - 1 ) lam16n13 ) ( * Nl2arg41 lam16n15 ) ( * Nl2arg42 lam16n16 ) ( - ( - RFN1_arg4 ) ) ) 0 ) ( = ( + ( * ( - 1 ) lam16n1 ) ( * 1 lam16n3 ) ( * 1 lam16n6 ) ( * 1 lam16n8 ) ( * ( - 1 ) lam16n9 ) ( * 1 lam16n11 ) ( * ( - 1 ) lam16n12 ) ( * 1 lam16n14 ) ( * Nl2arg51 lam16n15 ) ( * Nl2arg52 lam16n16 ) ( - ( - ( + 0 RFN1_arg5 ) RFN1_arg5 ) ) ) 0 ) ( = ( + ( * ( - 1 ) lam16n4 ) ( * 1 lam16n5 ) ( - ( + 0 ( * RFN1_arg1 1 ) ) ) ) 0 ) ( = ( - ( + 0 ( * RFN1_arg3 1 ) ) ) 0 ) ( = ( - ( + 0 ( * RFN1_arg4 1 ) ) ) 0 ) ) ) ) ) ( or ( and ( >= lam10n0 0 ) ( >= lam10n1 0 ) ( >= lam10n2 0 ) ( >= lam10n3 0 ) ( >= lam10n4 0 ) ( >= lam10n5 0 ) ( >= lam10n6 0 ) ( >= lam10n7 0 ) ( >= lam10n8 0 ) ( >= lam10n9 0 ) ( >= lam10n10 0 ) ( >= lam10n11 0 ) ( >= lam10n12 0 ) ( >= lam10n15 0 ) ( >= lam10n16 0 ) ( > ( + ( * 1 lam10n0 ) ( * 1 lam10n1 ) ( * 1 lam10n2 ) ( * 1 lam10n3 ) ( * 1 lam10n4 ) ( * ( - 1 ) lam10n5 ) ( * 50001 lam10n7 ) ( * 50001 lam10n8 ) ( * 50001 lam10n9 ) ( * 50001 lam10n10 ) ( * 50001 lam10n11 ) ( * 50001 lam10n12 ) ( * Nl2CT1 lam10n15 ) ( * Nl2CT2 lam10n16 ) ( - 1 ) ) 0 ) ( = ( + ( * ( - 1 ) lam10n0 ) ( * ( - 1 ) lam10n1 ) ( * ( - 1 ) lam10n6 ) ( * 1 lam10n7 ) ( * 1 lam10n8 ) ( * 1 lam10n9 ) ( * Nl2arg11 lam10n15 ) ( * Nl2arg12 lam10n16 ) ) 0 ) ( = ( + ( * 1 lam10n5 ) ( * ( - 1 ) lam10n7 ) ( * ( - 1 ) lam10n8 ) ( * ( - 1 ) lam10n9 ) ( * ( - 1 ) lam10n10 ) ( * ( - 1 ) lam10n11 ) ( * ( - 1 ) lam10n12 ) ( * Nl2arg21 lam10n15 ) ( * Nl2arg22 lam10n16 ) ) 0 ) ( = ( + ( * ( - 1 ) lam10n2 ) ( * ( - 1 ) lam10n3 ) ( * 1 lam10n13 ) ( * Nl2arg31 lam10n15 ) ( * Nl2arg32 lam10n16 ) ) 0 ) ( = ( + ( * ( - 1 ) lam10n5 ) ( * ( - 1 ) lam10n13 ) ( * Nl2arg41 lam10n15 ) ( * Nl2arg42 lam10n16 ) ) 0 ) ( = ( + ( * ( - 1 ) lam10n1 ) ( * 1 lam10n3 ) ( * ( - 1 ) lam10n5 ) ( * 1 lam10n8 ) ( * ( - 1 ) lam10n9 ) ( * 1 lam10n11 ) ( * ( - 1 ) lam10n12 ) ( * 1 lam10n14 ) ( * Nl2arg51 lam10n15 ) ( * Nl2arg52 lam10n16 ) ) 0 ) ( = ( + ( * ( - 1 ) lam10n4 ) ( * 1 lam10n6 ) ) 0 ) ) ( and ( >= lam14n0 0 ) ( >= lam14n1 0 ) ( >= lam14n2 0 ) ( >= lam14n3 0 ) ( >= lam14n4 0 ) ( >= lam14n5 0 ) ( >= lam14n6 0 ) ( >= lam14n7 0 ) ( >= lam14n8 0 ) ( >= lam14n9 0 ) ( >= lam14n10 0 ) ( >= lam14n11 0 ) ( >= lam14n12 0 ) ( >= lam14n15 0 ) ( >= lam14n16 0 ) ( > ( + ( * 1 lam14n0 ) ( * 1 lam14n1 ) ( * 1 lam14n2 ) ( * 1 lam14n3 ) ( * 1 lam14n4 ) ( * 2 lam14n6 ) ( * 50001 lam14n7 ) ( * 50001 lam14n8 ) ( * 50001 lam14n9 ) ( * 50001 lam14n10 ) ( * 50001 lam14n11 ) ( * 50001 lam14n12 ) ( * Nl2CT1 lam14n15 ) ( * Nl2CT2 lam14n16 ) ( - 1 ) ) 0 ) ( = ( + ( * ( - 1 ) lam14n0 ) ( * ( - 1 ) lam14n1 ) ( * ( - 1 ) lam14n5 ) ( * 1 lam14n7 ) ( * 1 lam14n8 ) ( * 1 lam14n9 ) ( * Nl2arg11 lam14n15 ) ( * Nl2arg12 lam14n16 ) ) 0 ) ( = ( + ( * ( - 1 ) lam14n6 ) ( * ( - 1 ) lam14n7 ) ( * ( - 1 ) lam14n8 ) ( * ( - 1 ) lam14n9 ) ( * ( - 1 ) lam14n10 ) ( * ( - 1 ) lam14n11 ) ( * ( - 1 ) lam14n12 ) ( * Nl2arg21 lam14n15 ) ( * Nl2arg22 lam14n16 ) ) 0 ) ( = ( + ( * ( - 1 ) lam14n2 ) ( * ( - 1 ) lam14n3 ) ( * 1 lam14n13 ) ( * Nl2arg31 lam14n15 ) ( * Nl2arg32 lam14n16 ) ) 0 ) ( = ( + ( * 1 lam14n6 ) ( * ( - 1 ) lam14n13 ) ( * Nl2arg41 lam14n15 ) ( * Nl2arg42 lam14n16 ) ) 0 ) ( = ( + ( * ( - 1 ) lam14n1 ) ( * 1 lam14n3 ) ( * 1 lam14n6 ) ( * 1 lam14n8 ) ( * ( - 1 ) lam14n9 ) ( * 1 lam14n11 ) ( * ( - 1 ) lam14n12 ) ( * 1 lam14n14 ) ( * Nl2arg51 lam14n15 ) ( * Nl2arg52 lam14n16 ) ) 0 ) ( = ( + ( * ( - 1 ) lam14n4 ) ( * 1 lam14n5 ) ) 0 ) ) ) ))
(check-sat)
(exit)
